language Essence 1.3

letting bot_end be [324, 129, 301, 62, 108, 228, 68, 63, 99, 367, 105, 221, 5, 88, 285, 75, 234, 144; int(1..18)]
letting bot_start be [78, 365, 59, 141, 251, 94, 241, 302, 145, 282, 355, 148, 354, 12, 19, 206, 305, 272; int(1..18)]
letting bots be 18
letting buffer_col be 2
letting buffer_row be 2
letting corridor_size be 1
letting n_shelves_col be 3
letting n_shelves_row be 13
letting shelf_col_size be 2
letting shelf_row_size be 1
